NAME: pr76.tsp
TYPE: TSP
COMMENT: Solution
DIMENSION: 76
TOUR_SECTION
1
23
22
21
25
24
46
45
44
48
47
69
68
67
70
27
26
32
33
34
35
36
37
18
17
16
15
14
13
12
11
10
9
74
38
39
40
41
60
59
58
57
63
64
62
61
72
73
71
55
56
49
50
65
66
51
52
53
54
42
43
28
29
30
31
19
20
5
6
7
8
3
4
76
75
2
-1
EOF